NAME : n40w60.005.423.tour
COMMENT : Length = 423
COMMENT : Found by LKH [Keld Helsgaun] Tue May  2 05:46:14 2017
TYPE : TOUR
DIMENSION : 41
TOUR_SECTION
1
21
3
5
19
26
38
18
2
37
29
16
25
24
12
4
28
6
10
30
15
40
8
7
14
31
32
34
22
23
9
27
17
11
20
39
36
33
13
41
35
-1
EOF
